<number of tasks>
20

<cycle time>
1000

<order strength>
0,284


<task times>
1 204
2 569
3 119
4 39
5 131
6 26
7 512
8 135
9 219
10 511
11 225
12 136
13 220
14 165
15 342
16 83
17 255
18 74
19 280
20 51

<precedence relations>
1,7
2,7
3,7
4,7
5,9
5,12
6,8
6,10
6,11
7,13
7,14
7,15
7,16
7,17
13,18
18,19
18,20

<end>
